data/CVRPLIB/Vrp-Set-XML100/instances/XML100_2311_13.vrp
NAME : XML100_2311_13
COMMENT : Generated by Queiroga, Sadykov, Uchoa, and Vidal (2021)
TYPE : CVRP
DIMENSION : 101
EDGE_WEIGHT_TYPE : EUC_2D
CAPACITY : 4
NODE_COORD_SECTION
1    500  500 
2    867  427 
3    412  239 
4    434  550 
5    496  399 
6    852  517 
7    381  495 
8    729  522 
9    134  387 
10   827  556 
11   800  522 
12   963  454 
13   428  98  
14   141  110 
15   134  319 
16   796  738 
17   911  723 
18   302  637 
19   300  435 
20   235  704 
21   504  888 
22   314  80  
23   166  420 
24   516  367 
25   14   615 
26   784  533 
27   954  548 
28   225  412 
29   476  903 
30   736  578 
31   113  754 
32   51   838 
33   542  739 
34   804  612 
35   159  336 
36   257  338 
37   868  153 
38   830  464 
39   227  678 
40   185  392 
41   242  394 
42   706  80  
43   785  531 
44   384  111 
45   36   602 
46   211  377 
47   321  316 
48   266  704 
49   252  70  
50   896  407 
51   877  481 
52   55   369 
53   859  486 
54   296  339 
55   795  520 
56   735  437 
57   799  410 
58   397  893 
59   823  609 
60   262  387 
61   711  454 
62   996  548 
63   687  480 
64   77   422 
65   90   365 
66   675  664 
67   246  439 
68   696  583 
69   735  521 
70   999  536 
71   562  753 
72   938  539 
73   170  381 
74   482  848 
75   833  611 
76   38   573 
77   672  665 
78   392  821 
79   220  397 
80   79   212 
81   169  459 
82   233  356 
83   355  93  
84   705  477 
85   977  772 
86   250  498 
87   31   242 
88   58   509 
89   86   389 
90   543  603 
91   791  448 
92   842  404 
93   738  398 
94   795  198 
95   770  7   
96   63   11  
97   321  204 
98   276  408 
99   334  217 
100  370  763 
101  137  298 
DEMAND_SECTION
1    0   
2    1   
3    1   
4    1   
5    1   
6    1   
7    1   
8    1   
9    1   
10   1   
11   1   
12   1   
13   1   
14   1   
15   1   
16   1   
17   1   
18   1   
19   1   
20   1   
21   1   
22   1   
23   1   
24   1   
25   1   
26   1   
27   1   
28   1   
29   1   
30   1   
31   1   
32   1   
33   1   
34   1   
35   1   
36   1   
37   1   
38   1   
39   1   
40   1   
41   1   
42   1   
43   1   
44   1   
45   1   
46   1   
47   1   
48   1   
49   1   
50   1   
51   1   
52   1   
53   1   
54   1   
55   1   
56   1   
57   1   
58   1   
59   1   
60   1   
61   1   
62   1   
63   1   
64   1   
65   1   
66   1   
67   1   
68   1   
69   1   
70   1   
71   1   
72   1   
73   1   
74   1   
75   1   
76   1   
77   1   
78   1   
79   1   
80   1   
81   1   
82   1   
83   1   
84   1   
85   1   
86   1   
87   1   
88   1   
89   1   
90   1   
91   1   
92   1   
93   1   
94   1   
95   1   
96   1   
97   1   
98   1   
99   1   
100  1   
101  1   
DEPOT_SECTION
1
-1
EOF
