data/CVRPLIB/Vrp-Set-XML100/solutions/XML100_2311_13.sol
Route #1: 62 83 68 7
Route #2: 44 24 75 87
Route #3: 41 94 36 93
Route #4: 33 58 74 9
Route #5: 27 78 45 40
Route #6: 89 70 32 3
Route #7: 11 69 61 26
Route #8: 2 82 43 12
Route #9: 6 85 66 18
Route #10: 57 28 20 73
Route #11: 1 49 91 56
Route #12: 47 19 38 17
Route #13: 80 22 72 39
Route #14: 5 50 52 37
Route #15: 54 10 42 25
Route #16: 64 51 88 63
Route #17: 86 79 95 13
Route #18: 8 14 100 34
Route #19: 30 31 77 99
Route #20: 15 16 84 71
Route #21: 67 29 65 76
Route #22: 97 59 81 35
Route #23: 4 23 46 53
Route #24: 21 48 96 98
Route #25: 60 55 90 92
Cost 21254
